RAW/CMTH/fspd/CMT14H.vrp_seed-9.out
821.7458258	0.399	28.456
