RAW/CMTH/fspd/CMT14H.vrp_seed-9.sol
Route #1: 69 66 68 64 61 72 74 62 65 67
Route #2: 20 24 25 27 29 30 28 26 22 21
Route #3: 47 49 50 51 48 45 46 44 42 43
Route #4: 91 89 88 85 84 82 83 86 87 90
Route #5: 57 55 54 53 56 58 60 59 40 41
Route #6: 5 3 7 8 11 9 6 4 1 75
Route #7: 2 99 100 97 93 92 94 95 96 98
Route #8: 23 13 17 18 19 15 16 14 12 10
Route #9: 52 31 35 37 38 39 36 34 33 32
Route #10: 81 78 76 71 70 73 77 79 80 63
Cost 821.745826